<number of tasks>
20


<number of equipment>
5


<cycle time>
1000


<investment costs>
1,23327
2,22871
3,18758
4,19682
5,20544


<task times>
1,487,-1,-1,467,449
2,425,-1,-1,509,455
3,414,-1,-1,459,450
4,449,-1,-1,459,450
5,431,434,-1,459,-1
6,426,-1,-1,468,473
7,-1,416,436,-1,-1
8,401,-1,-1,437,431
9,425,-1,-1,518,453
10,427,-1,-1,546,484
11,404,-1,-1,440,445
12,437,431,-1,457,-1
13,430,425,-1,456,-1
14,413,474,-1,459,-1
15,529,528,-1,490,-1
16,425,421,-1,446,-1
17,-1,540,551,-1,-1
18,495,450,-1,474,-1
19,-1,462,470,-1,-1
20,429,-1,-1,444,439


<precedence relations>
1,7
2,5
2,8
2,9
2,10
3,6
5,11
6,12
7,13
11,15
12,14
13,16
13,17
14,19
15,18
16,20


<task types>
1,3
2,3
3,3
4,3
5,2
6,3
7,1
8,3
9,3
10,3
11,3
12,2
13,2
14,2
15,2
16,2
17,1
18,2
19,1
20,3


<line depot>
1,0
2,1
3,2
4,10
5,0


<processing costs>
1,14400
2,14400
3,7200
4,14400
5,7200


<saving costs>
1,2332
2,2287
3,1875
4,1968
5,2054


<end>
